24

1 8 17
2 23 4
3 11 12
4 11 3
5 17 15
6 20 12
7 12 19
8 22 5
9 19 1
10 20 22
11 7 10
12 7 13
13 4 6
14 13 7
15 24 22
16 18 18
17 16 11
18 22 12
19 19 17
20 20 1
21 11 18
22 11 11
23 11 9
24 4 23

49
